773,691
545,139
755,178
709,583
178,327
361,243
168,240
361,243
778,336
596,379
681,376
765,-127
927,745
444,443
533,554
622,397
504,59
681,826
254,189
847,919
611,850
945,770
491,32
972,617
515,-107
597,322
966,498
708,321
738,424
593,392
769,392
874,140
168,572
524,891
602,-97
600,246
